cra-25/ns/ns.smt2
(declare-const Bracket_1 Real)
(declare-const Bracket_2 Real)
(declare-const Bracket_3 Real)
(declare-const Bracket_4 Real)
(declare-const Bracket_5 Real)
(declare-const FinalTaxes Real)
(declare-const Income Real)

(assert (= Bracket_1 (* 0.0879 (ite (<= Income 30507) Income 30507))))
(assert (= Bracket_2 (* 0.1495 (ite (> Income 61015) (- 61015 30507) (ite (> Income 30507) (- Income 30507) 0)))))
(assert (= Bracket_3 (* 0.1667 (ite (> Income 95883) (- 95883 61015) (ite (> Income 61015) (- Income 61015) 0)))))
(assert (= Bracket_4 (* 0.175 (ite (> Income 154650) (- 154650 95883) (ite (> Income 95883) (- Income 95883) 0)))))
(assert (= Bracket_5 (* 0.21 (ite (> Income 154650) (- Income 154650) 0))))
(assert (= FinalTaxes (+ Bracket_1 Bracket_2 Bracket_3 Bracket_4 Bracket_5)))
